
50
12768

362 415
299 288
784 845
459 444
571 529
580 552
240 339
674 640
854 901
78 72
633 561
339 265
582 656
542 624
111 46
99 113
571 529
888 859
896 798
896 824
237 138
432 351
591 577
348 367
163 231
991 923
634 636
396 399
435 477
666 700
761 760
809 780
297 335
898 968
783 764
360 271
184 172
527 431
197 261
938 878
60 10
724 818
97 162
856 812
497 433
58 132
1023 986
497 419
927 979
389 323
